c Generated map
c Size: 10 * 10, weights in range: 1 to 10, walls: True, with ratio 0.05
c dim 5 of 6
c
p sp 100 161
c graph contains 100 nodes and 161 arcs
c
a 1 11 3
a 11 1 3
a 1 2 6
a 2 1 6
a 2 3 1
a 3 2 1
a 3 13 10
a 13 3 10
a 3 4 5
a 4 3 5
a 4 14 2
a 14 4 2
a 4 5 10
a 5 4 10
a 5 15 10
a 15 5 10
a 5 6 10
a 6 5 10
a 6 16 5
a 16 6 5
a 6 7 1
a 7 6 1
a 7 17 6
a 17 7 6
a 7 8 9
a 8 7 9
a 8 18 10
a 18 8 10
a 8 9 1
a 9 8 1
a 9 19 9
a 19 9 9
a 9 10 5
a 10 9 5
a 10 20 1
a 20 10 1
a 11 21 8
a 21 11 8
a 13 23 4
a 23 13 4
a 13 14 5
a 14 13 5
a 14 24 4
a 24 14 4
a 14 15 3
a 15 14 3
a 15 25 8
a 25 15 8
a 15 16 5
a 16 15 5
a 16 26 1
a 26 16 1
a 16 17 3
a 17 16 3
a 17 27 9
a 27 17 9
a 17 18 1
a 18 17 1
a 18 28 9
a 28 18 9
a 18 19 5
a 19 18 5
a 19 29 6
a 29 19 6
a 19 20 1
a 20 19 1
a 20 30 7
a 30 20 7
a 21 31 2
a 31 21 2
a 21 22 4
a 22 21 4
a 22 32 7
a 32 22 7
a 22 23 10
a 23 22 10
a 23 33 10
a 33 23 10
a 23 24 6
a 24 23 6
a 24 34 8
a 34 24 8
a 24 25 9
a 25 24 9
a 25 35 9
a 35 25 9
a 25 26 2
a 26 25 2
a 26 36 6
a 36 26 6
a 26 27 7
a 27 26 7
a 27 37 7
a 37 27 7
a 27 28 9
a 28 27 9
a 28 38 3
a 38 28 3
a 28 29 9
a 29 28 9
a 29 39 10
a 39 29 10
a 29 30 1
a 30 29 1
a 30 40 7
a 40 30 7
a 31 41 3
a 41 31 3
a 31 32 3
a 32 31 3
a 32 42 2
a 42 32 2
a 32 33 4
a 33 32 4
a 33 43 2
a 43 33 2
a 33 34 10
a 34 33 10
a 34 44 9
a 44 34 9
a 34 35 7
a 35 34 7
a 35 45 1
a 45 35 1
a 35 36 4
a 36 35 4
a 36 37 10
a 37 36 10
a 37 47 4
a 47 37 4
a 37 38 9
a 38 37 9
a 38 48 10
a 48 38 10
a 38 39 1
a 39 38 1
a 39 49 7
a 49 39 7
a 39 40 2
a 40 39 2
a 40 50 10
a 50 40 10
a 41 51 7
a 51 41 7
a 41 42 9
a 42 41 9
a 42 52 5
a 52 42 5
a 42 43 4
a 43 42 4
a 43 53 3
a 53 43 3
a 43 44 4
a 44 43 4
a 44 54 8
a 54 44 8
a 44 45 7
a 45 44 7
a 45 55 2
a 55 45 2
a 47 57 5
a 57 47 5
a 47 48 3
a 48 47 3
a 48 58 5
a 58 48 5
a 48 49 5
a 49 48 5
a 49 59 5
a 59 49 5
a 49 50 1
a 50 49 1
a 50 60 10
a 60 50 10
a 51 61 5
a 61 51 5
a 51 52 2
a 52 51 2
a 52 62 9
a 62 52 9
a 52 53 3
a 53 52 3
a 53 63 4
a 63 53 4
a 53 54 3
a 54 53 3
a 54 64 1
a 64 54 1
a 54 55 4
a 55 54 4
a 55 65 2
a 65 55 2
a 55 56 5
a 56 55 5
a 56 66 5
a 66 56 5
a 56 57 1
a 57 56 1
a 57 67 7
a 67 57 7
a 57 58 4
a 58 57 4
a 58 68 3
a 68 58 3
a 58 59 6
a 59 58 6
a 59 69 8
a 69 59 8
a 59 60 6
a 60 59 6
a 60 70 1
a 70 60 1
a 61 71 2
a 71 61 2
a 61 62 6
a 62 61 6
a 62 72 6
a 72 62 6
a 62 63 8
a 63 62 8
a 63 73 7
a 73 63 7
a 63 64 6
a 64 63 6
a 64 74 7
a 74 64 7
a 64 65 6
a 65 64 6
a 65 75 1
a 75 65 1
a 65 66 8
a 66 65 8
a 66 76 2
a 76 66 2
a 66 67 4
a 67 66 4
a 67 77 9
a 77 67 9
a 67 68 1
a 68 67 1
a 68 78 7
a 78 68 7
a 68 69 9
a 69 68 9
a 69 79 7
a 79 69 7
a 69 70 4
a 70 69 4
a 70 80 7
a 80 70 7
a 71 81 8
a 81 71 8
a 71 72 2
a 72 71 2
a 72 82 8
a 82 72 8
a 72 73 2
a 73 72 2
a 73 74 3
a 74 73 3
a 74 84 7
a 84 74 7
a 74 75 3
a 75 74 3
a 75 76 7
a 76 75 7
a 76 86 7
a 86 76 7
a 76 77 8
a 77 76 8
a 77 87 5
a 87 77 5
a 77 78 9
a 78 77 9
a 78 88 2
a 88 78 2
a 78 79 7
a 79 78 7
a 79 89 10
a 89 79 10
a 79 80 6
a 80 79 6
a 80 90 1
a 90 80 1
a 81 91 10
a 91 81 10
a 81 82 4
a 82 81 4
a 82 92 8
a 92 82 8
a 86 96 10
a 96 86 10
a 86 87 10
a 87 86 10
a 87 97 8
a 97 87 8
a 87 88 2
a 88 87 2
a 88 98 3
a 98 88 3
a 88 89 9
a 89 88 9
a 89 99 4
a 99 89 4
a 89 90 3
a 90 89 3
a 90 100 3
a 100 90 3
a 91 92 6
a 92 91 6
a 92 93 2
a 93 92 2
a 95 96 4
a 96 95 4
a 96 97 1
a 97 96 1
a 97 98 9
a 98 97 9
a 98 99 9
a 99 98 9
a 99 100 8
a 100 99 8
